Version identifier: 22.1.1.0 | 2022-11-28 | 9160aff4d
CPXPARAM_Threads                                 1
CPXPARAM_MIP_Strategy_VariableSelect             3
CPXPARAM_TimeLimit                               599.99859447200004
Found incumbent of value 0.000000 after 0.00 sec. (0.38 ticks)

Root node processing (before b&c):
  Real time             =    0.00 sec. (0.43 ticks)
Sequential b&c:
  Real time             =    0.00 sec. (0.00 ticks)
                          ------------
Total (root+branch&cut) =    0.00 sec. (0.43 ticks)
Version identifier: 22.1.1.0 | 2022-11-28 | 9160aff4d
CPXPARAM_Threads                                 1
CPXPARAM_MIP_Strategy_VariableSelect             3
CPXPARAM_TimeLimit                               599.98736475099997
Found incumbent of value 0.000000 after 0.00 sec. (0.47 ticks)

Root node processing (before b&c):
  Real time             =    0.00 sec. (0.53 ticks)
Sequential b&c:
  Real time             =    0.00 sec. (0.00 ticks)
                          ------------
Total (root+branch&cut) =    0.00 sec. (0.53 ticks)
Version identifier: 22.1.1.0 | 2022-11-28 | 9160aff4d
CPXPARAM_Threads                                 1
CPXPARAM_MIP_Strategy_VariableSelect             3
CPXPARAM_TimeLimit                               599.97543126999994
Found incumbent of value 0.000000 after 0.00 sec. (0.51 ticks)

Root node processing (before b&c):
  Real time             =    0.00 sec. (0.58 ticks)
Sequential b&c:
  Real time             =    0.00 sec. (0.00 ticks)
                          ------------
Total (root+branch&cut) =    0.00 sec. (0.58 ticks)
Version identifier: 22.1.1.0 | 2022-11-28 | 9160aff4d
CPXPARAM_Threads                                 1
CPXPARAM_MIP_Strategy_VariableSelect             3
CPXPARAM_TimeLimit                               599.96231257500006
Found incumbent of value 0.000000 after 0.00 sec. (0.53 ticks)

Root node processing (before b&c):
  Real time             =    0.00 sec. (0.61 ticks)
Sequential b&c:
  Real time             =    0.00 sec. (0.00 ticks)
                          ------------
Total (root+branch&cut) =    0.00 sec. (0.61 ticks)
Version identifier: 22.1.1.0 | 2022-11-28 | 9160aff4d
CPXPARAM_Threads                                 1
CPXPARAM_MIP_Strategy_VariableSelect             3
CPXPARAM_TimeLimit                               599.94847047799999
Found incumbent of value 0.000000 after 0.00 sec. (0.54 ticks)

Root node processing (before b&c):
  Real time             =    0.00 sec. (0.62 ticks)
Sequential b&c:
  Real time             =    0.00 sec. (0.00 ticks)
                          ------------
Total (root+branch&cut) =    0.00 sec. (0.62 ticks)
Version identifier: 22.1.1.0 | 2022-11-28 | 9160aff4d
CPXPARAM_Threads                                 1
CPXPARAM_MIP_Strategy_VariableSelect             3
CPXPARAM_TimeLimit                               599.93452302799994
Found incumbent of value 0.000000 after 0.00 sec. (0.59 ticks)

Root node processing (before b&c):
  Real time             =    0.00 sec. (0.67 ticks)
Sequential b&c:
  Real time             =    0.00 sec. (0.00 ticks)
                          ------------
Total (root+branch&cut) =    0.00 sec. (0.67 ticks)
Version identifier: 22.1.1.0 | 2022-11-28 | 9160aff4d
CPXPARAM_Threads                                 1
CPXPARAM_MIP_Strategy_VariableSelect             3
CPXPARAM_TimeLimit                               599.92047748899995
Tried aggregator 1 time.
MIP Presolve eliminated 374 rows and 1077 columns.
Reduced MIP has 1792 rows, 3231 columns, and 23538 nonzeros.
Reduced MIP has 3231 binaries, 0 generals, 0 SOSs, and 0 indicators.
Presolve time = 0.01 sec. (12.88 ticks)
Found incumbent of value 0.000000 after 0.03 sec. (40.10 ticks)

Root node processing (before b&c):
  Real time             =    0.03 sec. (40.26 ticks)
Sequential b&c:
  Real time             =    0.00 sec. (0.00 ticks)
                          ------------
Total (root+branch&cut) =    0.03 sec. (40.26 ticks)
Version identifier: 22.1.1.0 | 2022-11-28 | 9160aff4d
CPXPARAM_Threads                                 1
CPXPARAM_MIP_Strategy_VariableSelect             3
CPXPARAM_TimeLimit                               599.87239865100003
Tried aggregator 1 time.
MIP Presolve eliminated 375 rows and 1080 columns.
Reduced MIP has 1797 rows, 3240 columns, and 23604 nonzeros.
Reduced MIP has 3240 binaries, 0 generals, 0 SOSs, and 0 indicators.
Presolve time = 0.01 sec. (12.92 ticks)
Found incumbent of value 0.000000 after 0.04 sec. (38.09 ticks)

Root node processing (before b&c):
  Real time             =    0.04 sec. (38.25 ticks)
Sequential b&c:
  Real time             =    0.00 sec. (0.00 ticks)
                          ------------
Total (root+branch&cut) =    0.04 sec. (38.25 ticks)
Primal:	360
Dual:	360
Status:	Optimal
Time:	0.180256
Sequence:
	0
	1
	5
	4
	0
	11
	4
	9
	9
	9
	4
	9
	5
	0
	9
	5
	0
	5
	4
	1
	4
	0
	5
	9
	5
	5
	9
	0
	9
	5
	5
	9
	4
	4
	0
	5
	9
	5
	5
	9
	4
	4
	9
	2
	4
	4
	1
	9
	9
	5
	9
	9
	5
	9
	9
	5
	5
	9
	0
	5
	1
	9
	0
	9
	5
	9
	0
	5
	5
	9
	9
	0
	4
	9
	9
	4
	4
	0
	4
	9
	5
	0
	5
	9
	0
	9
	4
	0
	5
	4
	0
	4
	9
	9
	9
	0
	9
	9
	9
	5
	1
	9
	5
	11
	0
	9
	5
	5
	0
	9
	4
	1
	9
	5
	3
	9
	5
	9
	9
	9
	5
	3
	0
	9
	9
	5
	0
	5
	9
	0
	5
	5
	9
	4
	5
	9
	1
	0
	5
	9
	4
	0
	9
	9
	0
	9
	4
	5
	0
	4
	9
	4
	9
	4
	4
	9
	0
	4
	5
	9
	9
	5
	9
	5
	0
	4
	5
	9
	4
	0
	5
	9
	9
	4
	9
	0
	4
	9
	1
	9
	1
	5
	9
	9
	5
	1
	5
	9
	5
	9
	5
	5
	9
	0
	5
	9
	4
	9
	5
	4
	9
	9
	4
	4
	1
	9
	5
	0
	5
	9
	9
	0
	1
	9
	0
	5
	9
	0
	1
	9
	9
	9
	1
	9
	0
	1
	4
	0
	9
	9
	5
	4
	0
	9
	9
	5
	4
	1
	5
	5
	9
	9
	4
	9
	5
	9
	0
	1
	9
	0
	5
	5
	9
	4
	9
	0
	4
	4
	0
	5
	9
	4
	9
	4
	9
	0
	5
	9
	5
	9
	0
	5
	5
	9
	4
	5
	0
	4
	9
	4
	9
	9
	4
	0
	9
	1
	0
	11
	9
	9
	5
	4
	9
	5
	4
	0
	9
	5
	5
	9
	5
	0
	4
	11
	9
	0
	9
	4
	4
	9
	5
	0
	5
	9
	4
	9
	5
	4
	0
	9
	9
	9
	5
	3
	9
	5
	0
	4
	9
	0
	4
	4
	9
	5
	5
	0
	9
	4
	1
	4
	0
	4
	10
	4
	5
	9
	9
	0
	9
	1
	9
	4
	5
	9
	9
	5
	0
	4
	4
	0
